% Logging successfully configured
%%%mzn-stat: initTime=0.037710927
%%%mzn-stat: objective=427
%%%mzn-stat: nodes=3439
%%%mzn-stat: restarts=0
%%%mzn-stat: peakDepth=1753
%%%mzn-stat: solveTime=1.450323022
%%%mzn-stat: variables=2560
%%%mzn-stat: propagators=7067
%%%mzn-stat: failures=1526
%%%mzn-stat: propagations=1081273
%%%mzn-stat: nogoods=1526
%%%mzn-stat: numAtomicConstraintsPropagated=0
%%%mzn-stat: circuitNumber4951PropagationsThatFoundConflict=671
%%%mzn-stat: circuitNumber4951TotalFixedEdgesAtConflict=62189
%%%mzn-stat: circuitNumber4951NumberOfConflicts=671
%%%mzn-stat: circuitNumber4951PropagationsThatPruned=1205
%%%mzn-stat: circuitNumber4951PropagationsTotal=4044
%%%mzn-stat: AverageConflictSize=37.29882044560944
%%%mzn-stat: NumUnitNogoodsLearned=0
%%%mzn-stat: AverageLearnedNogoodLength=67.36828309305373
%%%mzn-stat: AverageBacktrackAmount=0
%%%mzn-stat: AverageLbd=65.55176933158585
%%%mzn-stat: 2AutonomousSearchNumBackupCalled=1669
%%%mzn-stat: 2AutonomousSearchNumPredicatesRemoved=0
%%%mzn-stat: 2AutonomousSearchNumCalls=1670
%%%mzn-stat: 2AutonomousSearchNumPredicatesAdded=1315
%%%mzn-stat: 2AutonomousSearchAverageSizeOfHeap=0.7874251497005988
%%%mzn-stat: 2AutonomousSearchNumAssignedPredicatesEncountered=1315
%%%mzn-stat-end
maxleg = 427;
succ = array1d(1..100,[19, 9, 6, 5, 10, 31, 8, 14, 4, 15, 16, 2, 23, 17, 24, 18, 20, 25, 12, 21, 28, 27, 7, 32, 39, 11, 1, 33, 22, 26, 42, 36, 38, 29, 30, 40, 34, 43, 37, 51, 35, 13, 49, 46, 60, 41, 3, 47, 53, 59, 62, 56, 57, 48, 54, 44, 58, 63, 55, 66, 50, 65, 74, 69, 67, 68, 72, 75, 61, 45, 73, 78, 82, 76, 83, 71, 84, 79, 92, 96, 77, 86, 85, 64, 95, 91, 52, 99, 98, 93, 89, 80, 97, 81, 94, 88, 87, 100, 70, 90]);
% time elapsed: 12.36 s
----------
%%%mzn-stat: initTime=0.037710927
%%%mzn-stat: objective=407
%%%mzn-stat: nodes=5713
%%%mzn-stat: restarts=0
%%%mzn-stat: peakDepth=1753
%%%mzn-stat: solveTime=1.573933407
%%%mzn-stat: variables=2560
%%%mzn-stat: propagators=7067
%%%mzn-stat: failures=1932
%%%mzn-stat: propagations=1389718
%%%mzn-stat: nogoods=1932
%%%mzn-stat: numAtomicConstraintsPropagated=0
%%%mzn-stat: circuitNumber4951PropagationsThatFoundConflict=698
%%%mzn-stat: circuitNumber4951TotalFixedEdgesAtConflict=64510
%%%mzn-stat: circuitNumber4951NumberOfConflicts=698
%%%mzn-stat: circuitNumber4951PropagationsThatPruned=1377
%%%mzn-stat: circuitNumber4951PropagationsTotal=4707
%%%mzn-stat: AverageConflictSize=31.213768115942027
%%%mzn-stat: NumUnitNogoodsLearned=0
%%%mzn-stat: AverageLearnedNogoodLength=59.15424430641822
%%%mzn-stat: AverageBacktrackAmount=0
%%%mzn-stat: AverageLbd=55.55124223602485
%%%mzn-stat: 2AutonomousSearchNumBackupCalled=3322
%%%mzn-stat: 2AutonomousSearchNumPredicatesRemoved=0
%%%mzn-stat: 2AutonomousSearchNumCalls=3324
%%%mzn-stat: 2AutonomousSearchNumPredicatesAdded=2344
%%%mzn-stat: 2AutonomousSearchAverageSizeOfHeap=0.8429602888086642
%%%mzn-stat: 2AutonomousSearchNumAssignedPredicatesEncountered=2802
%%%mzn-stat-end
maxleg = 407;
succ = array1d(1..100,[19, 9, 6, 5, 10, 31, 8, 14, 4, 15, 16, 2, 23, 17, 24, 18, 20, 25, 12, 21, 28, 27, 7, 32, 39, 11, 1, 33, 22, 26, 42, 36, 38, 29, 30, 40, 34, 43, 37, 51, 35, 13, 49, 46, 60, 41, 3, 47, 53, 59, 62, 56, 57, 48, 54, 44, 58, 63, 55, 66, 50, 65, 74, 69, 67, 68, 72, 75, 61, 45, 82, 78, 64, 76, 83, 80, 84, 79, 92, 96, 77, 86, 85, 89, 95, 91, 52, 99, 98, 93, 73, 71, 97, 81, 94, 88, 87, 100, 70, 90]);
% time elapsed: 12.48 s
----------
%%%mzn-stat: initTime=0.037710927
%%%mzn-stat: objective=407
%%%mzn-stat: nodes=1596253
%%%mzn-stat: restarts=0
%%%mzn-stat: peakDepth=1753
%%%mzn-stat: solveTime=1788.867477012
%%%mzn-stat: variables=2560
%%%mzn-stat: propagators=7067
%%%mzn-stat: failures=1582442
%%%mzn-stat: propagations=849150709
%%%mzn-stat: nogoods=1582442
%%%mzn-stat: numAtomicConstraintsPropagated=0
%%%mzn-stat: circuitNumber4951PropagationsThatFoundConflict=1348198
%%%mzn-stat: circuitNumber4951TotalFixedEdgesAtConflict=128956533
%%%mzn-stat: circuitNumber4951NumberOfConflicts=1348198
%%%mzn-stat: circuitNumber4951PropagationsThatPruned=679724
%%%mzn-stat: circuitNumber4951PropagationsTotal=3308688
%%%mzn-stat: AverageConflictSize=76.94625016272319
%%%mzn-stat: NumUnitNogoodsLearned=0
%%%mzn-stat: AverageLearnedNogoodLength=95.94902246022286
%%%mzn-stat: AverageBacktrackAmount=0
%%%mzn-stat: AverageLbd=77.08505777778902
%%%mzn-stat: 2AutonomousSearchNumBackupCalled=3322
%%%mzn-stat: 2AutonomousSearchNumPredicatesRemoved=0
%%%mzn-stat: 2AutonomousSearchNumCalls=3324
%%%mzn-stat: 2AutonomousSearchNumPredicatesAdded=4907
%%%mzn-stat: 2AutonomousSearchAverageSizeOfHeap=0.8429602888086642
%%%mzn-stat: 2AutonomousSearchNumAssignedPredicatesEncountered=2802
%%%mzn-stat-end
